proyfinal/src/viki/013/andrea/andrea-localstore/experimentInOfficeAgust.take6/worker_2/093237ac-8c08-4648-bff3-85324ea5d585.als.cnf.out
Reading from standard input... Use '--help' for help.
============================[ Problem Statistics ]=============================
|                                                                             |
|  Number of variables:         87638                                         |
|  Number of clauses:          161767                                         |
|  Parse time:                   0.04 s                                       |
|                                                                             |
============================[ Search Statistics ]==============================
| Conflicts |          ORIGINAL         |          LEARNT          | Progress |
|           |    Vars  Clauses Literals |    Limit  Clauses Lit/Cl |          |
===============================================================================
|       100 |   62380   105180   262765 |    38566      100     14 | 28.821 % |
|       250 |   62380   105180   262765 |    42422      250     26 | 28.821 % |
|       475 |   62363   105078   262471 |    46664      474     32 | 28.840 % |
|       812 |   62363   105078   262471 |    51331      811     66 | 28.840 % |
|      1318 |   62363   105078   262471 |    56464     1317     82 | 28.840 % |
|      2077 |   62363   105078   262471 |    62110     2076     84 | 28.840 % |
|      3216 |   62362   105034   262381 |    68322     3211     74 | 28.842 % |
|      4924 |   62362   105034   262381 |    75154     4919     82 | 28.842 % |
|      7486 |   62326   104886   262039 |    82669     7184     85 | 28.882 % |
|     11330 |   51489    73356   184103 |    90936    10944     88 | 41.248 % |
===============================================================================
restarts              : 63
conflicts             : 16340          (6981 /sec)
decisions             : 49749          (0.00 % random) (21254 /sec)
propagations          : 23263471       (9938524 /sec)
conflict literals     : 1209773        (51.74 % deleted)
Memory used           : 32.62 MB
CPU time              : 2.34074 s

UNSATISFIABLE
